WARNING: for repeatability, setting FPU to use double precision
============================[ Problem Statistics ]=============================
|                                                                             |
|  Number of variables:        225262                                         |
|  Number of clauses:          523370                                         |
|  Parse time:                   0.29 s                                       |
|                                                                             |
============================[ Search Statistics ]==============================
| Conflicts |          ORIGINAL         |          LEARNT          | Progress |
|           |    Vars  Clauses Literals |    Limit  Clauses Lit/Cl |          |
===============================================================================
|       100 |  124646   502041  1127728 |   184081      100     12 | 44.666 % |
|       250 |  124646   502041  1127728 |   202489      250     62 | 44.666 % |
|       475 |  124646   502041  1127728 |   222738      475     50 | 44.666 % |
|       812 |  124646   502041  1127728 |   245012      812     39 | 44.666 % |
|      1318 |  124646   502041  1127728 |   269514     1318     51 | 44.666 % |
|      2077 |  124646   502041  1127728 |   296465     2077     47 | 44.666 % |
|      3216 |  124646   502041  1127728 |   326111     3216     76 | 44.666 % |
===============================================================================
restarts              : 18
conflicts             : 3514           (1305 /sec)
decisions             : 45392          (0.00 % random) (16861 /sec)
propagations          : 9552358        (3548203 /sec)
conflict literals     : 250214         (7.46 % deleted)
Memory used           : 61.00 MB
CPU time              : 2.69217 s

SATISFIABLE
